decision_x1=[0,7];
decision_x2=[0,7];
decision_x3=[0,7];
decision_x4=[0,7];
decision_x5=[0,7];
decision_x6=[0,7];
decision_x7=[0,7];
decision_x8=[0,7];
decision_x9=[0,7];
decision_x10=[0,7];
decision_x11=[0,7];
decision_x12=[0,7];
decision_x13=[0,7];
decision_x14=[0,7];
decision_x15=[0,7];
decision_x16=[0,7];
decision_x17=[0,7];
decision_x18=[0,7];
random_y1=[0,7];
random_y2=[0,7];
random_y3=[0,7];
random_y4=[0,7];
random_y5=[0,7];
random_y6=[0,7];
random_y7=[0,7];
random_y8=[0,7];
constraint_x2_x1=[
0,0,8.6|
0,1,7.5|
0,2,1.4|
0,3,4.2|
0,4,4.7|
0,5,9.8|
0,6,5.9|
0,7,6|
1,0,7|
1,1,2.9|
1,2,3.8|
1,3,6.2|
1,4,4.2|
1,5,0.92|
1,6,2.3|
1,7,5.8|
2,0,8.3|
2,1,1.6|
2,2,4.1|
2,3,0.6|
2,4,9.9|
2,5,1|
2,6,6.4|
2,7,6.7|
3,0,8.4|
3,1,4.9|
3,2,5.2|
3,3,6.7|
3,4,9.5|
3,5,9.4|
3,6,8.4|
3,7,4|
4,0,0.35|
4,1,7.1|
4,2,1.5|
4,3,1.9|
4,4,4.5|
4,5,8|
4,6,7.3|
4,7,8.2|
5,0,7.6|
5,1,1.8|
5,2,3.4|
5,3,8.7|
5,4,4.1|
5,5,9.4|
5,6,4.7|
5,7,9.2|
6,0,0.14|
6,1,6.4|
6,2,6|
6,3,9.1|
6,4,9.7|
6,5,3.3|
6,6,6.6|
6,7,4.5|
7,0,4.3|
7,1,10|
7,2,7.2|
7,3,3.4|
7,4,6.8|
7,5,5.5|
7,6,4.4|
7,7,0.12|
];
constraint_x3_x2=[
0,0,3.2|
0,1,8|
0,2,9.2|
0,3,3.5|
0,4,8.7|
0,5,5.9|
0,6,8.9|
0,7,0.9|
1,0,7.6|
1,1,3.1|
1,2,9.5|
1,3,5.8|
1,4,9.1|
1,5,6.9|
1,6,0.77|
1,7,5.9|
2,0,2.3|
2,1,6.7|
2,2,7.9|
2,3,1.9|
2,4,8.9|
2,5,2.1|
2,6,8.1|
2,7,3|
3,0,3.2|
3,1,9.1|
3,2,3.8|
3,3,6.4|
3,4,3.5|
3,5,5.9|
3,6,8.3|
3,7,4.1|
4,0,3.6|
4,1,6.9|
4,2,6.3|
4,3,8.4|
4,4,7.4|
4,5,0.53|
4,6,1|
4,7,0.61|
5,0,8.5|
5,1,7.2|
5,2,5.1|
5,3,4.1|
5,4,9.1|
5,5,7.6|
5,6,4.1|
5,7,8.7|
6,0,0.64|
6,1,4.8|
6,2,7.4|
6,3,8.9|
6,4,3.1|
6,5,3.9|
6,6,5.8|
6,7,1.1|
7,0,7.5|
7,1,8.3|
7,2,7.8|
7,3,3.6|
7,4,1.2|
7,5,8.1|
7,6,9.1|
7,7,2.6|
];
constraint_x4_x3=[
0,0,2.2|
0,1,1.7|
0,2,7.5|
0,3,6.8|
0,4,0.6|
0,5,5.7|
0,6,7.9|
0,7,0.42|
1,0,0.2|
1,1,2.6|
1,2,9.2|
1,3,2.1|
1,4,9.8|
1,5,2.6|
1,6,9.2|
1,7,5|
2,0,6.6|
2,1,9.9|
2,2,7.1|
2,3,0.17|
2,4,7.9|
2,5,9|
2,6,5.9|
2,7,5.2|
3,0,8.1|
3,1,7.1|
3,2,10|
3,3,8.2|
3,4,9.1|
3,5,7|
3,6,1.5|
3,7,9.2|
4,0,8.2|
4,1,4|
4,2,2.8|
4,3,3|
4,4,9.2|
4,5,9.4|
4,6,5.4|
4,7,6.4|
5,0,3.5|
5,1,5.2|
5,2,0.073|
5,3,4.4|
5,4,8.8|
5,5,0.58|
5,6,4.9|
5,7,0.66|
6,0,9.6|
6,1,2.1|
6,2,2.2|
6,3,2.9|
6,4,9.3|
6,5,4.8|
6,6,7.3|
6,7,9.7|
7,0,5.6|
7,1,1.2|
7,2,1.9|
7,3,3|
7,4,2.7|
7,5,8.9|
7,6,2.6|
7,7,2.8|
];
constraint_x5_x1=[
0,0,5.4|
0,1,2.7|
0,2,5.4|
0,3,4.4|
0,4,0.76|
0,5,5|
0,6,4.3|
0,7,7.6|
1,0,7.6|
1,1,9.7|
1,2,4.6|
1,3,2.2|
1,4,8.2|
1,5,6.6|
1,6,2|
1,7,5.3|
2,0,7.5|
2,1,7.9|
2,2,0.5|
2,3,6.3|
2,4,3|
2,5,1.6|
2,6,2.4|
2,7,8.4|
3,0,5.8|
3,1,2.1|
3,2,5.7|
3,3,7.4|
3,4,5.3|
3,5,2.2|
3,6,2.4|
3,7,2.4|
4,0,5.9|
4,1,3.2|
4,2,0.25|
4,3,3.4|
4,4,7.9|
4,5,0.63|
4,6,9|
4,7,9.6|
5,0,6.8|
5,1,3.5|
5,2,1.3|
5,3,7.6|
5,4,7.8|
5,5,4|
5,6,1.5|
5,7,8.4|
6,0,0.056|
6,1,4.7|
6,2,9.5|
6,3,3.1|
6,4,1.7|
6,5,4.3|
6,6,0.55|
6,7,3.7|
7,0,0.35|
7,1,0.91|
7,2,6.9|
7,3,4.3|
7,4,7|
7,5,4.3|
7,6,7.3|
7,7,5.2|
];
constraint_x6_x2=[
0,0,1.1|
0,1,7.2|
0,2,4.2|
0,3,6.4|
0,4,6.2|
0,5,9.6|
0,6,9.9|
0,7,0.022|
1,0,2|
1,1,8.5|
1,2,6.3|
1,3,3.2|
1,4,2.3|
1,5,7.9|
1,6,2.1|
1,7,8.8|
2,0,7.9|
2,1,7|
2,2,7.5|
2,3,9.6|
2,4,6.7|
2,5,5.9|
2,6,5.2|
2,7,5.2|
3,0,1.6|
3,1,8.5|
3,2,9.7|
3,3,6.8|
3,4,7.4|
3,5,3.5|
3,6,2.3|
3,7,8.7|
4,0,1.8|
4,1,9.5|
4,2,7.9|
4,3,1.1|
4,4,8.1|
4,5,1.4|
4,6,7.2|
4,7,1.6|
5,0,6.4|
5,1,7.9|
5,2,2.9|
5,3,9.4|
5,4,2.3|
5,5,3.3|
5,6,2.3|
5,7,8.6|
6,0,9|
6,1,0.29|
6,2,6.4|
6,3,6.3|
6,4,1.9|
6,5,6.2|
6,6,1.5|
6,7,8|
7,0,7.7|
7,1,0.17|
7,2,6.2|
7,3,2.5|
7,4,3.9|
7,5,9.5|
7,6,8.6|
7,7,1.5|
];
constraint_x6_x5=[
0,0,7.9|
0,1,3.7|
0,2,9.4|
0,3,8.4|
0,4,5|
0,5,0.089|
0,6,2.2|
0,7,3.4|
1,0,7.2|
1,1,1|
1,2,1.6|
1,3,9.7|
1,4,7.3|
1,5,2.6|
1,6,6.5|
1,7,9.1|
2,0,7.7|
2,1,9.7|
2,2,1.7|
2,3,9.4|
2,4,9.8|
2,5,3.7|
2,6,3.5|
2,7,0.7|
3,0,3.4|
3,1,7.1|
3,2,2.5|
3,3,5.5|
3,4,6.9|
3,5,6.5|
3,6,7.1|
3,7,7.6|
4,0,5.3|
4,1,6.8|
4,2,3.4|
4,3,3.2|
4,4,1.8|
4,5,0.66|
4,6,5.5|
4,7,3.2|
5,0,5.6|
5,1,5.2|
5,2,6.3|
5,3,8.8|
5,4,3.3|
5,5,6.3|
5,6,8.4|
5,7,1.7|
6,0,6.5|
6,1,4.6|
6,2,3.8|
6,3,1.1|
6,4,7.3|
6,5,9.4|
6,6,8.8|
6,7,8.4|
7,0,6.8|
7,1,9.1|
7,2,9.1|
7,3,6.1|
7,4,2.8|
7,5,4.8|
7,6,3.1|
7,7,2.7|
];
constraint_x7_x3=[
0,0,6.9|
0,1,7.7|
0,2,9.4|
0,3,0.88|
0,4,8.9|
0,5,3.2|
0,6,0.3|
0,7,3.3|
1,0,3.3|
1,1,5|
1,2,2.8|
1,3,8.9|
1,4,6.6|
1,5,1.7|
1,6,9.6|
1,7,3.5|
2,0,4.4|
2,1,2.4|
2,2,3.1|
2,3,2.2|
2,4,1.3|
2,5,2.5|
2,6,0.54|
2,7,2.6|
3,0,4.6|
3,1,5|
3,2,0.41|
3,3,7.3|
3,4,9.8|
3,5,5|
3,6,3|
3,7,5.8|
4,0,2.4|
4,1,9.1|
4,2,8.8|
4,3,2.8|
4,4,7.4|
4,5,1.8|
4,6,1.2|
4,7,4|
5,0,7.8|
5,1,2.5|
5,2,5|
5,3,0.93|
5,4,6.4|
5,5,5.2|
5,6,0.43|
5,7,3.5|
6,0,6.4|
6,1,5.9|
6,2,2.6|
6,3,5.7|
6,4,7.2|
6,5,1.9|
6,6,0.28|
6,7,6.9|
7,0,2.6|
7,1,9.2|
7,2,4.6|
7,3,3.3|
7,4,8.7|
7,5,6|
7,6,4.3|
7,7,2.9|
];
constraint_x7_x6=[
0,0,3.4|
0,1,6.4|
0,2,9.9|
0,3,1.2|
0,4,8.4|
0,5,9.8|
0,6,6.1|
0,7,6.4|
1,0,1.1|
1,1,0.2|
1,2,6.1|
1,3,2.2|
1,4,5.2|
1,5,6.1|
1,6,6.7|
1,7,1.3|
2,0,4.9|
2,1,4.3|
2,2,8.5|
2,3,5.6|
2,4,2.6|
2,5,3.6|
2,6,8.3|
2,7,8.6|
3,0,1.6|
3,1,1.6|
3,2,7.9|
3,3,8.9|
3,4,9.6|
3,5,5.5|
3,6,4.6|
3,7,3.5|
4,0,1.3|
4,1,8.4|
4,2,0.85|
4,3,5.5|
4,4,9.3|
4,5,9.4|
4,6,2.5|
4,7,9.2|
5,0,1|
5,1,3.5|
5,2,1.2|
5,3,4.1|
5,4,8.7|
5,5,0.57|
5,6,1.1|
5,7,8.4|
6,0,8.5|
6,1,5.6|
6,2,3.1|
6,3,5.9|
6,4,6.7|
6,5,9.3|
6,6,9.1|
6,7,8.5|
7,0,5.8|
7,1,2.1|
7,2,6.2|
7,3,9.4|
7,4,6.9|
7,5,6.3|
7,6,1.1|
7,7,0.6|
];
constraint_x8_x4=[
0,0,4.5|
0,1,5.2|
0,2,8.9|
0,3,7.5|
0,4,4.3|
0,5,3|
0,6,2.8|
0,7,9.6|
1,0,7.1|
1,1,8.8|
1,2,4.6|
1,3,3|
1,4,9.7|
1,5,7|
1,6,2.3|
1,7,5.2|
2,0,9.4|
2,1,6.9|
2,2,0.94|
2,3,5.2|
2,4,6.7|
2,5,6.4|
2,6,1.3|
2,7,7.3|
3,0,2.3|
3,1,8|
3,2,6.6|
3,3,7.5|
3,4,8.7|
3,5,5.3|
3,6,4.7|
3,7,8.1|
4,0,3|
4,1,2.9|
4,2,2.5|
4,3,7.2|
4,4,8.4|
4,5,8.5|
4,6,8.3|
4,7,5.3|
5,0,5.6|
5,1,5|
5,2,6|
5,3,9.4|
5,4,2.1|
5,5,1.4|
5,6,6.2|
5,7,0.98|
6,0,9.1|
6,1,1.3|
6,2,0.27|
6,3,7.8|
6,4,3.9|
6,5,1.4|
6,6,5.4|
6,7,8.9|
7,0,2.7|
7,1,0.85|
7,2,3.1|
7,3,7.8|
7,4,4.2|
7,5,6.2|
7,6,3.4|
7,7,2.2|
];
constraint_x8_x7=[
0,0,3|
0,1,6.8|
0,2,2.3|
0,3,5.7|
0,4,2|
0,5,0.13|
0,6,4.1|
0,7,1.8|
1,0,6.3|
1,1,8.3|
1,2,3.1|
1,3,2.1|
1,4,3.2|
1,5,4.5|
1,6,8.4|
1,7,7.1|
2,0,1.9|
2,1,8.1|
2,2,1.7|
2,3,3.1|
2,4,9.1|
2,5,7.4|
2,6,2|
2,7,5|
3,0,0.056|
3,1,8.1|
3,2,9.2|
3,3,0.67|
3,4,4|
3,5,4.7|
3,6,5.4|
3,7,6.7|
4,0,7.3|
4,1,6.9|
4,2,5.6|
4,3,9.3|
4,4,1.2|
4,5,7.8|
4,6,8.2|
4,7,5.8|
5,0,9|
5,1,3.2|
5,2,10|
5,3,2.9|
5,4,3.7|
5,5,9.1|
5,6,4.2|
5,7,7.3|
6,0,6.9|
6,1,3.8|
6,2,3.4|
6,3,7.2|
6,4,3.8|
6,5,0.87|
6,6,0.1|
6,7,8.3|
7,0,3.6|
7,1,9.2|
7,2,7.5|
7,3,9|
7,4,5.1|
7,5,2.5|
7,6,2.1|
7,7,8|
];
constraint_x9_x5=[
0,0,8.1|
0,1,9|
0,2,5.6|
0,3,6.3|
0,4,5.3|
0,5,9.6|
0,6,2.1|
0,7,2.5|
1,0,4.8|
1,1,3.5|
1,2,5.9|
1,3,2.2|
1,4,3.8|
1,5,9.7|
1,6,0.65|
1,7,2.7|
2,0,2|
2,1,6.5|
2,2,1.8|
2,3,6.8|
2,4,6.3|
2,5,0.23|
2,6,2.5|
2,7,1.9|
3,0,3.9|
3,1,8|
3,2,1.8|
3,3,7.7|
3,4,7.2|
3,5,0.25|
3,6,2.1|
3,7,5|
4,0,9.1|
4,1,4.7|
4,2,4.9|
4,3,2.5|
4,4,6.9|
4,5,0.14|
4,6,7.3|
4,7,5.1|
5,0,3.4|
5,1,4.1|
5,2,1.3|
5,3,3.4|
5,4,1.8|
5,5,6.6|
5,6,5.3|
5,7,8.8|
6,0,5.5|
6,1,1.3|
6,2,3.1|
6,3,4.1|
6,4,6.4|
6,5,6.1|
6,6,4.1|
6,7,8.6|
7,0,2.1|
7,1,5.4|
7,2,6.8|
7,3,6.6|
7,4,8.9|
7,5,8.2|
7,6,10|
7,7,8.1|
];
constraint_x10_x6=[
0,0,0.8|
0,1,0.34|
0,2,5.3|
0,3,5.3|
0,4,4.8|
0,5,6.5|
0,6,7.7|
0,7,7.6|
1,0,8.7|
1,1,4.4|
1,2,6.9|
1,3,0.12|
1,4,0.33|
1,5,7.9|
1,6,6.8|
1,7,7.1|
2,0,7.8|
2,1,8.8|
2,2,7.3|
2,3,1.5|
2,4,9.5|
2,5,1.3|
2,6,3.7|
2,7,6.1|
3,0,4.1|
3,1,3.2|
3,2,4.2|
3,3,1.7|
3,4,1.5|
3,5,7.8|
3,6,7.2|
3,7,5.6|
4,0,7|
4,1,1|
4,2,6.1|
4,3,5.3|
4,4,7.9|
4,5,4.9|
4,6,1.3|
4,7,9.8|
5,0,0.83|
5,1,4.7|
5,2,8.3|
5,3,3.9|
5,4,9.1|
5,5,2.5|
5,6,9.7|
5,7,3.1|
6,0,3|
6,1,6.1|
6,2,7.6|
6,3,2.8|
6,4,8.5|
6,5,6.2|
6,6,3.2|
6,7,8.4|
7,0,6.9|
7,1,5.5|
7,2,9.3|
7,3,3.4|
7,4,2.5|
7,5,3.7|
7,6,0.32|
7,7,3.5|
];
constraint_x10_x9=[
0,0,6.8|
0,1,7.9|
0,2,6.4|
0,3,8.2|
0,4,1|
0,5,0.36|
0,6,5|
0,7,9.5|
1,0,6.2|
1,1,5.9|
1,2,1.4|
1,3,2.1|
1,4,4.9|
1,5,8.6|
1,6,0.72|
1,7,0.9|
2,0,1.3|
2,1,4.3|
2,2,8.7|
2,3,2.1|
2,4,4.9|
2,5,1.8|
2,6,5.8|
2,7,1.7|
3,0,3.8|
3,1,4.3|
3,2,5.8|
3,3,6.3|
3,4,1.9|
3,5,9.3|
3,6,0.73|
3,7,7.2|
4,0,5.9|
4,1,8.5|
4,2,9.2|
4,3,9.1|
4,4,1.3|
4,5,2.7|
4,6,2.1|
4,7,1.8|
5,0,3.6|
5,1,6.2|
5,2,3.3|
5,3,0.031|
5,4,2.7|
5,5,7|
5,6,6.4|
5,7,7.3|
6,0,6.2|
6,1,4|
6,2,0.54|
6,3,9.6|
6,4,5.9|
6,5,9.4|
6,6,1.1|
6,7,2.1|
7,0,6.4|
7,1,0.93|
7,2,4.3|
7,3,4.5|
7,4,7.6|
7,5,0.49|
7,6,0.088|
7,7,6.9|
];
constraint_x11_x7=[
0,0,0.77|
0,1,9.3|
0,2,6.3|
0,3,5.2|
0,4,2.8|
0,5,4.8|
0,6,3.8|
0,7,3.8|
1,0,0.96|
1,1,8.1|
1,2,6.6|
1,3,3.2|
1,4,2.8|
1,5,3.1|
1,6,1.4|
1,7,7.6|
2,0,2.6|
2,1,1.6|
2,2,9|
2,3,6.8|
2,4,0.99|
2,5,9|
2,6,7.8|
2,7,9.4|
3,0,5.4|
3,1,1.9|
3,2,4.7|
3,3,8.7|
3,4,2.3|
3,5,6.5|
3,6,2.8|
3,7,0.16|
4,0,6.8|
4,1,7.1|
4,2,9.9|
4,3,7.5|
4,4,8.3|
4,5,4.4|
4,6,8.9|
4,7,3.7|
5,0,1.5|
5,1,5.1|
5,2,9.6|
5,3,4.9|
5,4,0.44|
5,5,1.1|
5,6,2.4|
5,7,1.9|
6,0,8.5|
6,1,3.5|
6,2,3.5|
6,3,6.1|
6,4,2.3|
6,5,9.6|
6,6,3.6|
6,7,7.2|
7,0,3|
7,1,8.5|
7,2,7.8|
7,3,1.7|
7,4,9.7|
7,5,0.28|
7,6,5.6|
7,7,6.6|
];
constraint_x11_x10=[
0,0,0.3|
0,1,6.3|
0,2,8|
0,3,9.8|
0,4,4.2|
0,5,1.1|
0,6,8.7|
0,7,7.3|
1,0,4|
1,1,8.7|
1,2,1.3|
1,3,5|
1,4,3.5|
1,5,8.1|
1,6,5|
1,7,4.9|
2,0,9|
2,1,3.2|
2,2,4.6|
2,3,3|
2,4,5.7|
2,5,0.98|
2,6,3|
2,7,1.9|
3,0,9.9|
3,1,0.99|
3,2,9.2|
3,3,8.3|
3,4,0.063|
3,5,8.8|
3,6,8.2|
3,7,8.9|
4,0,9.6|
4,1,8|
4,2,7.2|
4,3,8|
4,4,2.6|
4,5,8.2|
4,6,0.23|
4,7,4.7|
5,0,1.2|
5,1,2.5|
5,2,8.1|
5,3,2.7|
5,4,0.82|
5,5,0.96|
5,6,4.6|
5,7,1.7|
6,0,9.1|
6,1,2|
6,2,5.5|
6,3,4.6|
6,4,2|
6,5,0.064|
6,6,2.2|
6,7,5.2|
7,0,3.9|
7,1,2.3|
7,2,9|
7,3,0.97|
7,4,9.9|
7,5,2.8|
7,6,1.6|
7,7,6.5|
];
constraint_x12_x8=[
0,0,7|
0,1,2.7|
0,2,1.8|
0,3,9.1|
0,4,4.4|
0,5,5.8|
0,6,5.1|
0,7,8.4|
1,0,7.1|
1,1,7.9|
1,2,4.8|
1,3,3.2|
1,4,3.6|
1,5,4|
1,6,1.8|
1,7,6.8|
2,0,6.1|
2,1,3.9|
2,2,5|
2,3,8|
2,4,5.8|
2,5,3.3|
2,6,8.5|
2,7,0.93|
3,0,2|
3,1,5.6|
3,2,0.86|
3,3,9.1|
3,4,4.5|
3,5,2.9|
3,6,9.6|
3,7,6.7|
4,0,4.5|
4,1,3.4|
4,2,5.2|
4,3,0.53|
4,4,2.1|
4,5,2.9|
4,6,6.9|
4,7,3.5|
5,0,8.7|
5,1,7.6|
5,2,9.4|
5,3,4.3|
5,4,8.8|
5,5,4.6|
5,6,8.8|
5,7,3.8|
6,0,2.1|
6,1,3.9|
6,2,2.3|
6,3,1.3|
6,4,1.1|
6,5,8.8|
6,6,2.5|
6,7,6.3|
7,0,8|
7,1,3.1|
7,2,0.02|
7,3,5.6|
7,4,2.1|
7,5,8.1|
7,6,4.8|
7,7,1.3|
];
constraint_x12_x11=[
0,0,8.6|
0,1,2.5|
0,2,2.9|
0,3,0.74|
0,4,9.3|
0,5,4.7|
0,6,5|
0,7,8|
1,0,6.7|
1,1,4.2|
1,2,6|
1,3,1.7|
1,4,7.2|
1,5,6.5|
1,6,5.5|
1,7,4.3|
2,0,3.3|
2,1,5.6|
2,2,3.2|
2,3,7.6|
2,4,7.6|
2,5,1.1|
2,6,6.5|
2,7,7.2|
3,0,1.3|
3,1,9|
3,2,3.4|
3,3,5|
3,4,0.94|
3,5,5.7|
3,6,5|
3,7,7.4|
4,0,7.8|
4,1,0.21|
4,2,6.6|
4,3,3.8|
4,4,9.9|
4,5,4.1|
4,6,3.2|
4,7,3.9|
5,0,1.1|
5,1,8.2|
5,2,3.1|
5,3,6.4|
5,4,5|
5,5,4.7|
5,6,7.1|
5,7,6.4|
6,0,3.5|
6,1,5.4|
6,2,9.1|
6,3,9.4|
6,4,9.1|
6,5,9.5|
6,6,3.1|
6,7,9.6|
7,0,2.1|
7,1,3.6|
7,2,3.4|
7,3,1.8|
7,4,0.29|
7,5,6.2|
7,6,1.6|
7,7,5.7|
];
constraint_x13_x9=[
0,0,3.2|
0,1,8.6|
0,2,9|
0,3,7.5|
0,4,1.5|
0,5,1.2|
0,6,4.7|
0,7,2.6|
1,0,1.9|
1,1,4.4|
1,2,8.9|
1,3,3.7|
1,4,6.7|
1,5,6.9|
1,6,2.4|
1,7,9.6|
2,0,4.4|
2,1,7.1|
2,2,10|
2,3,9.3|
2,4,3.4|
2,5,6.3|
2,6,7.9|
2,7,6.5|
3,0,9.9|
3,1,7|
3,2,8.6|
3,3,4.2|
3,4,5.9|
3,5,0.51|
3,6,7.3|
3,7,5.6|
4,0,8.5|
4,1,4.3|
4,2,6|
4,3,2.8|
4,4,8.8|
4,5,7.1|
4,6,0.053|
4,7,9|
5,0,5.7|
5,1,8.2|
5,2,7|
5,3,8.5|
5,4,5.2|
5,5,8.1|
5,6,7.9|
5,7,9.6|
6,0,2.7|
6,1,9.4|
6,2,2.6|
6,3,6.4|
6,4,2.3|
6,5,7.4|
6,6,7|
6,7,8.4|
7,0,1.9|
7,1,7.4|
7,2,8.7|
7,3,4.7|
7,4,1.8|
7,5,8.7|
7,6,7.4|
7,7,1.6|
];
constraint_x14_x10=[
0,0,2.8|
0,1,9.7|
0,2,4.4|
0,3,0.014|
0,4,7.8|
0,5,1.8|
0,6,1.4|
0,7,9.7|
1,0,1.7|
1,1,5.4|
1,2,6.5|
1,3,6.8|
1,4,3.2|
1,5,4.8|
1,6,0.0038|
1,7,4.7|
2,0,6.2|
2,1,1.7|
2,2,1.3|
2,3,7.4|
2,4,4|
2,5,2.5|
2,6,4|
2,7,9.6|
3,0,5.1|
3,1,2.7|
3,2,6.4|
3,3,9.8|
3,4,6.2|
3,5,1.9|
3,6,1.3|
3,7,1.4|
4,0,9.2|
4,1,4.2|
4,2,0.28|
4,3,2.1|
4,4,1.3|
4,5,6.7|
4,6,0.71|
4,7,4.2|
5,0,8.5|
5,1,8.3|
5,2,5.2|
5,3,1.6|
5,4,8.2|
5,5,6.2|
5,6,3.2|
5,7,5.1|
6,0,1.4|
6,1,5.3|
6,2,8.7|
6,3,7.6|
6,4,1.1|
6,5,6.4|
6,6,4.9|
6,7,7.8|
7,0,6|
7,1,1.7|
7,2,6.8|
7,3,8.5|
7,4,7.6|
7,5,6.7|
7,6,9.8|
7,7,7.6|
];
constraint_x15_x11=[
0,0,8.8|
0,1,6|
0,2,6.7|
0,3,5.8|
0,4,7.9|
0,5,0.083|
0,6,2.6|
0,7,2.7|
1,0,6.5|
1,1,4.9|
1,2,5.6|
1,3,2|
1,4,6.8|
1,5,7|
1,6,0.3|
1,7,2.3|
2,0,4.4|
2,1,6|
2,2,5.6|
2,3,0.74|
2,4,6.4|
2,5,2|
2,6,6.5|
2,7,5.3|
3,0,1.1|
3,1,4.1|
3,2,7.6|
3,3,5.2|
3,4,4.3|
3,5,9.3|
3,6,5.7|
3,7,0.98|
4,0,0.97|
4,1,3.1|
4,2,4.5|
4,3,4.6|
4,4,3.4|
4,5,3.7|
4,6,1.8|
4,7,1.8|
5,0,4.4|
5,1,5.8|
5,2,8.9|
5,3,8.5|
5,4,3.9|
5,5,6|
5,6,1.6|
5,7,1.1|
6,0,8.1|
6,1,7|
6,2,9.8|
6,3,6.9|
6,4,1.1|
6,5,9.6|
6,6,6.6|
6,7,9.3|
7,0,8.3|
7,1,0.6|
7,2,8.7|
7,3,1.6|
7,4,6.8|
7,5,6.6|
7,6,7.6|
7,7,5.6|
];
constraint_x16_x12=[
0,0,5.6|
0,1,7.2|
0,2,8.1|
0,3,10|
0,4,1.3|
0,5,9.4|
0,6,3.5|
0,7,2.3|
1,0,5.9|
1,1,8.5|
1,2,2.7|
1,3,2|
1,4,5.3|
1,5,5.1|
1,6,9.5|
1,7,5.1|
2,0,0.14|
2,1,4|
2,2,8|
2,3,5.1|
2,4,6.6|
2,5,4|
2,6,1.3|
2,7,0.093|
3,0,7.9|
3,1,2|
3,2,1.1|
3,3,7.7|
3,4,3.8|
3,5,3.6|
3,6,8.9|
3,7,3|
4,0,0.12|
4,1,3.2|
4,2,6.9|
4,3,9.3|
4,4,7.1|
4,5,4.8|
4,6,3.3|
4,7,7|
5,0,9.3|
5,1,4.4|
5,2,2.9|
5,3,6.1|
5,4,0.56|
5,5,2.7|
5,6,1.8|
5,7,3|
6,0,0.15|
6,1,8.5|
6,2,1.1|
6,3,1.4|
6,4,2.5|
6,5,4.7|
6,6,0.57|
6,7,9.4|
7,0,0.42|
7,1,5.2|
7,2,4.6|
7,3,2.2|
7,4,7.9|
7,5,0.6|
7,6,9|
7,7,0.88|
];
constraint_x17_x13=[
0,0,3.8|
0,1,4.9|
0,2,2.2|
0,3,3.4|
0,4,1.2|
0,5,9.6|
0,6,0.91|
0,7,2|
1,0,6.7|
1,1,2.8|
1,2,0.31|
1,3,8.2|
1,4,0.05|
1,5,6.5|
1,6,2.7|
1,7,4.9|
2,0,1.8|
2,1,8.1|
2,2,7.7|
2,3,4.6|
2,4,1.4|
2,5,5.6|
2,6,8.6|
2,7,5.1|
3,0,6.9|
3,1,8.9|
3,2,8|
3,3,5.2|
3,4,1.7|
3,5,5.5|
3,6,5.5|
3,7,7.2|
4,0,6.5|
4,1,4.8|
4,2,1.7|
4,3,8.4|
4,4,5.1|
4,5,8.2|
4,6,8.4|
4,7,1.3|
5,0,3.1|
5,1,3.8|
5,2,8.8|
5,3,0.2|
5,4,5.8|
5,5,1.5|
5,6,4.6|
5,7,8.7|
6,0,7|
6,1,2.5|
6,2,1.9|
6,3,8.7|
6,4,8.9|
6,5,7.1|
6,6,5.7|
6,7,0.24|
7,0,7.5|
7,1,5.9|
7,2,7.9|
7,3,7.6|
7,4,8.5|
7,5,5.2|
7,6,0.98|
7,7,6.5|
];
constraint_x18_x14=[
0,0,5.5|
0,1,8.3|
0,2,4|
0,3,6.2|
0,4,0.54|
0,5,9.4|
0,6,0.34|
0,7,9.3|
1,0,9.6|
1,1,5|
1,2,2.1|
1,3,3.8|
1,4,3.5|
1,5,7.6|
1,6,1.5|
1,7,0.28|
2,0,6.2|
2,1,0.073|
2,2,8.6|
2,3,5.2|
2,4,2.9|
2,5,4.1|
2,6,5.9|
2,7,9.5|
3,0,3.3|
3,1,6.9|
3,2,4.9|
3,3,1.9|
3,4,0.69|
3,5,4.3|
3,6,8.2|
3,7,7.9|
4,0,2.4|
4,1,9.4|
4,2,3.2|
4,3,8.8|
4,4,8.9|
4,5,8.7|
4,6,0.093|
4,7,5.7|
5,0,6.8|
5,1,9.8|
5,2,2.5|
5,3,7.9|
5,4,2.2|
5,5,6.1|
5,6,6.7|
5,7,4.8|
6,0,1.9|
6,1,9.5|
6,2,4.8|
6,3,9.3|
6,4,4.8|
6,5,8|
6,6,6.1|
6,7,1.5|
7,0,4|
7,1,4.7|
7,2,8.3|
7,3,5.5|
7,4,7.8|
7,5,2.4|
7,6,4.7|
7,7,0.92|
];
constraint_x1_y1=[
0,0,1.6|
0,1,5.2|
0,2,0.53|
0,3,2|
0,4,2.2|
0,5,3.5|
0,6,7.3|
0,7,3.7|
1,0,1.2|
1,1,6.6|
1,2,1.7|
1,3,0.88|
1,4,7.8|
1,5,9.1|
1,6,8.6|
1,7,5.9|
2,0,4.1|
2,1,0.76|
2,2,6.2|
2,3,7.1|
2,4,9|
2,5,2.4|
2,6,6.5|
2,7,9.8|
3,0,8.5|
3,1,8.7|
3,2,3|
3,3,7.8|
3,4,7.9|
3,5,0.44|
3,6,8.9|
3,7,10|
4,0,0.9|
4,1,7|
4,2,9.7|
4,3,0.14|
4,4,5.1|
4,5,8.9|
4,6,3.7|
4,7,8.6|
5,0,1.4|
5,1,10|
5,2,8.4|
5,3,7.8|
5,4,3|
5,5,9.1|
5,6,5.3|
5,7,0.071|
6,0,2.2|
6,1,0.099|
6,2,6.9|
6,3,0.043|
6,4,6.9|
6,5,0.67|
6,6,9.2|
6,7,5.6|
7,0,9.8|
7,1,2|
7,2,5.8|
7,3,8.1|
7,4,4.3|
7,5,3.9|
7,6,6.9|
7,7,7.3|
];
constraint_x2_y2=[
0,0,2.4|
0,1,0.84|
0,2,6.2|
0,3,3.5|
0,4,1.4|
0,5,2.4|
0,6,7.9|
0,7,2.7|
1,0,2.5|
1,1,3.8|
1,2,3|
1,3,7.6|
1,4,7.2|
1,5,0.34|
1,6,4.4|
1,7,5.7|
2,0,7.8|
2,1,2.2|
2,2,7.3|
2,3,3|
2,4,8.1|
2,5,1.3|
2,6,3.1|
2,7,6.1|
3,0,1.9|
3,1,4.4|
3,2,4.4|
3,3,8.6|
3,4,5.8|
3,5,7|
3,6,8.2|
3,7,8.4|
4,0,5.6|
4,1,0.089|
4,2,7.3|
4,3,9|
4,4,5.5|
4,5,9.1|
4,6,8.2|
4,7,5.2|
5,0,3.3|
5,1,9.4|
5,2,4.7|
5,3,5|
5,4,8.6|
5,5,4.5|
5,6,10|
5,7,0.48|
6,0,4.5|
6,1,6.6|
6,2,10|
6,3,4.8|
6,4,6.2|
6,5,6.4|
6,6,9|
6,7,9|
7,0,2.7|
7,1,3.2|
7,2,3.9|
7,3,5.2|
7,4,0.21|
7,5,0.95|
7,6,3.7|
7,7,4.5|
];
constraint_x3_y3=[
0,0,5.9|
0,1,1.4|
0,2,3.2|
0,3,3.1|
0,4,8.3|
0,5,6.3|
0,6,2.3|
0,7,2.2|
1,0,0.46|
1,1,9|
1,2,9.7|
1,3,6.9|
1,4,7.9|
1,5,9.1|
1,6,3.3|
1,7,5.1|
2,0,3.5|
2,1,7.9|
2,2,6.2|
2,3,2.2|
2,4,4.8|
2,5,0.88|
2,6,2.7|
2,7,8.5|
3,0,5.6|
3,1,6.6|
3,2,3.5|
3,3,7.9|
3,4,5.7|
3,5,2|
3,6,6.2|
3,7,0.44|
4,0,8.3|
4,1,3.1|
4,2,7.7|
4,3,2.8|
4,4,0.57|
4,5,9.9|
4,6,8.2|
4,7,1.2|
5,0,0.53|
5,1,0.012|
5,2,1.2|
5,3,7.3|
5,4,4.9|
5,5,9.2|
5,6,5.8|
5,7,3.4|
6,0,3.1|
6,1,9.6|
6,2,3.9|
6,3,9.1|
6,4,9.1|
6,5,0.92|
6,6,2.4|
6,7,0.41|
7,0,4.9|
7,1,5.2|
7,2,6.1|
7,3,1.1|
7,4,8.2|
7,5,2.1|
7,6,2.6|
7,7,4.8|
];
constraint_x4_y4=[
0,0,8|
0,1,4.4|
0,2,0.21|
0,3,6|
0,4,6.9|
0,5,1.8|
0,6,9.4|
0,7,2.5|
1,0,5.6|
1,1,6.5|
1,2,4.4|
1,3,7.4|
1,4,7.5|
1,5,9.1|
1,6,2.1|
1,7,3.6|
2,0,9.8|
2,1,2.2|
2,2,6|
2,3,7.3|
2,4,3.6|
2,5,1|
2,6,0.39|
2,7,4.1|
3,0,8.2|
3,1,8.5|
3,2,2.4|
3,3,5.5|
3,4,9.7|
3,5,7.5|
3,6,6.4|
3,7,2.7|
4,0,5.2|
4,1,4.9|
4,2,0.77|
4,3,9.5|
4,4,2|
4,5,3.2|
4,6,6.8|
4,7,5.7|
5,0,1.6|
5,1,4.9|
5,2,8.3|
5,3,7.1|
5,4,5.6|
5,5,4.8|
5,6,5.5|
5,7,3.8|
6,0,5.7|
6,1,2.3|
6,2,8.8|
6,3,1.9|
6,4,3.5|
6,5,4.4|
6,6,0.7|
6,7,0.84|
7,0,3.9|
7,1,1.4|
7,2,3.6|
7,3,9.5|
7,4,3.9|
7,5,4.1|
7,6,0.45|
7,7,2.5|
];
constraint_x5_y5=[
0,0,0.68|
0,1,1.3|
0,2,5.6|
0,3,7.3|
0,4,1.7|
0,5,8.6|
0,6,0.073|
0,7,0.79|
1,0,3.9|
1,1,4.4|
1,2,6.6|
1,3,3.6|
1,4,6.9|
1,5,0.28|
1,6,8.1|
1,7,2.1|
2,0,6.8|
2,1,3|
2,2,3.7|
2,3,6.3|
2,4,5.5|
2,5,5.4|
2,6,0.39|
2,7,6.6|
3,0,0.4|
3,1,4.1|
3,2,6.8|
3,3,7.2|
3,4,4.9|
3,5,6.9|
3,6,0.26|
3,7,7|
4,0,1.2|
4,1,6.3|
4,2,1.4|
4,3,3.1|
4,4,4.2|
4,5,8.4|
4,6,7|
4,7,1.1|
5,0,7.5|
5,1,9.7|
5,2,9.4|
5,3,8.9|
5,4,9.7|
5,5,7|
5,6,0.26|
5,7,6|
6,0,2.8|
6,1,5.9|
6,2,8.7|
6,3,0.96|
6,4,6.5|
6,5,6.8|
6,6,9.9|
6,7,4.8|
7,0,8|
7,1,4.9|
7,2,7.8|
7,3,6.6|
7,4,0.028|
7,5,3.8|
7,6,8.1|
7,7,3.2|
];
constraint_x6_y6=[
0,0,5.2|
0,1,8.1|
0,2,1.7|
0,3,9.6|
0,4,0.032|
0,5,8.1|
0,6,2.5|
0,7,4.3|
1,0,5.2|
1,1,5.2|
1,2,5.3|
1,3,5.3|
1,4,1.3|
1,5,5.4|
1,6,0.44|
1,7,1.5|
2,0,3|
2,1,0.59|
2,2,5.6|
2,3,2.4|
2,4,0.19|
2,5,2.1|
2,6,9.7|
2,7,3.9|
3,0,1.6|
3,1,2.5|
3,2,0.74|
3,3,6.3|
3,4,3|
3,5,2.7|
3,6,1.6|
3,7,0.73|
4,0,4.1|
4,1,0.84|
4,2,2.3|
4,3,0.00034|
4,4,7.6|
4,5,1.6|
4,6,5.7|
4,7,3.5|
5,0,6|
5,1,8.2|
5,2,2.8|
5,3,9.1|
5,4,7.2|
5,5,7.8|
5,6,7|
5,7,5.3|
6,0,4.7|
6,1,8|
6,2,2.8|
6,3,7.7|
6,4,6.9|
6,5,0.047|
6,6,8.9|
6,7,6.5|
7,0,4.6|
7,1,4.4|
7,2,6|
7,3,2.7|
7,4,7.2|
7,5,9|
7,6,7.4|
7,7,9.7|
];
constraint_x7_y7=[
0,0,4.3|
0,1,3.7|
0,2,3.4|
0,3,8.1|
0,4,3.1|
0,5,2.9|
0,6,1.4|
0,7,8.3|
1,0,6|
1,1,0.81|
1,2,1.6|
1,3,7.2|
1,4,9.9|
1,5,7.7|
1,6,4.5|
1,7,3.1|
2,0,7.3|
2,1,2|
2,2,7.5|
2,3,1.7|
2,4,7.8|
2,5,1.1|
2,6,9.1|
2,7,6.4|
3,0,4.7|
3,1,0.45|
3,2,5.6|
3,3,5.7|
3,4,6|
3,5,9.3|
3,6,8.7|
3,7,1.8|
4,0,8.4|
4,1,6|
4,2,2.3|
4,3,2.2|
4,4,2.6|
4,5,5.9|
4,6,5.7|
4,7,7.5|
5,0,7.3|
5,1,5.4|
5,2,4.6|
5,3,7|
5,4,0.48|
5,5,5.2|
5,6,5.6|
5,7,3.2|
6,0,5.2|
6,1,4.2|
6,2,8.7|
6,3,6.6|
6,4,0.37|
6,5,9.7|
6,6,2|
6,7,5.5|
7,0,3|
7,1,8|
7,2,2.8|
7,3,8|
7,4,2.4|
7,5,0.1|
7,6,1.2|
7,7,2.9|
];
constraint_x8_y8=[
0,0,1.7|
0,1,1.6|
0,2,2.4|
0,3,2.2|
0,4,8.7|
0,5,5|
0,6,0.99|
0,7,3.4|
1,0,6.4|
1,1,6|
1,2,8.7|
1,3,0.15|
1,4,2|
1,5,7.1|
1,6,5.8|
1,7,4|
2,0,7.2|
2,1,4|
2,2,6.7|
2,3,2.2|
2,4,5.8|
2,5,0.53|
2,6,3.7|
2,7,7.1|
3,0,2.8|
3,1,8.8|
3,2,5.5|
3,3,5.3|
3,4,3.1|
3,5,7.5|
3,6,3.9|
3,7,3.9|
4,0,3.1|
4,1,5.1|
4,2,5.7|
4,3,9.1|
4,4,2.5|
4,5,4|
4,6,5.7|
4,7,4.7|
5,0,7.1|
5,1,1|
5,2,6|
5,3,7.9|
5,4,4|
5,5,4.5|
5,6,2.9|
5,7,3.1|
6,0,9.6|
6,1,3.8|
6,2,9.4|
6,3,0.76|
6,4,3|
6,5,4.1|
6,6,4.9|
6,7,2.4|
7,0,2|
7,1,0.084|
7,2,7.1|
7,3,2.2|
7,4,9.1|
7,5,6.6|
7,6,4.7|
7,7,4|
];
initial_distribution_y1=[0.041,0.16,0.075,0.17,0.054,0.21,0.17,0.11];
initial_distribution_y2=[0.19,0.15,0.19,0.18,0.19,0.06,0.025,0.014];
initial_distribution_y3=[0.049,0.14,0.18,0.11,0.13,0.14,0.075,0.18];
initial_distribution_y4=[0.2,0.2,0.064,0.026,0.18,0.055,0.19,0.092];
initial_distribution_y5=[0.033,0.16,0.16,0.16,0.1,0.15,0.17,0.066];
initial_distribution_y6=[0.15,0.11,0.15,0.2,0.18,0.084,0.048,0.085];
initial_distribution_y7=[0.056,0.14,0.14,0.1,0.14,0.21,0.067,0.15];
initial_distribution_y8=[0.016,0.019,0.23,0.25,0.19,0.13,0.051,0.12];
transition_y1=[
0.2,0.044,0.013,0.16,0.073,0.2,0.12,0.19|
0.17,0.093,0.14,0.029,0.012,0.23,0.063,0.26|
0.096,0.21,0.21,0.1,0.063,0.19,0.063,0.065|
0.16,0.19,0.12,0.028,0.051,0.16,0.17,0.12|
0.068,0.2,0.13,0.052,0.038,0.075,0.14,0.3|
0.06,0.16,0.046,0.1,0.17,0.08,0.15,0.24|
0.13,0.15,0.12,0.17,0.18,0.079,0.07,0.099|
0.23,0.087,0.11,0.038,0.18,0.06,0.23,0.073|
];
transition_y2=[
0.038,0.22,0.063,0.2,0.09,0.21,0.081,0.095|
0.17,0.25,0.036,0.0093,0.2,0.24,0.048,0.056|
0.22,0.22,0.14,0.0064,0.14,0.11,0.12,0.049|
0.034,0.085,0.16,0.18,0.13,0.14,0.19,0.071|
0.11,0.13,0.15,0.15,0.18,0.0088,0.11,0.17|
0.02,0.24,0.013,0.099,0.13,0.14,0.17,0.19|
0.12,0.065,0.09,0.14,0.2,0.2,0.012,0.18|
0.2,0.22,0.091,0.11,0.2,0.028,0.12,0.029|
];
transition_y3=[
0.17,0.063,0.029,0.16,0.029,0.19,0.13,0.23|
0.093,0.24,0.012,0.23,0.17,0.15,0.011,0.093|
0.063,0.078,0.18,0.031,0.18,0.17,0.12,0.18|
0.2,0.17,0.032,0.17,0.12,0.15,0.043,0.12|
0.22,0.082,0.065,0.057,0.0085,0.12,0.19,0.26|
0.034,0.028,0.099,0.23,0.17,0.18,0.11,0.15|
0.17,0.23,0.0051,0.093,0.11,0.14,0.067,0.19|
0.14,0.055,0.19,0.037,0.2,0.077,0.19,0.11|
];
transition_y4=[
0.22,0.065,0.1,0.15,0.12,0.16,0.076,0.11|
0.19,0.046,0.22,0.073,0.038,0.23,0.09,0.11|
0.1,0.12,0.16,0.11,0.13,0.14,0.1,0.15|
0.075,0.02,0.096,0.041,0.34,0.31,0.043,0.075|
0.14,0.048,0.12,0.17,0.043,0.18,0.16,0.15|
0.13,0.18,0.18,0.088,0.02,0.085,0.16,0.17|
0.23,0.2,0.013,0.09,0.095,0.2,0.14,0.036|
0.039,0.2,0.25,0.064,0.091,0.059,0.2,0.095|
];
transition_y5=[
0.13,0.027,0.098,0.21,0.19,0.18,0.06,0.11|
0.04,0.084,0.22,0.24,0.16,0.075,0.13,0.05|
0.087,0.13,0.007,0.065,0.19,0.3,0.18,0.05|
0.094,0.19,0.21,0.049,0.18,0.069,0.077,0.13|
0.026,0.23,0.078,0.11,0.23,0.14,0.18,0.0084|
0.12,0.19,0.17,0.16,0.058,0.14,0.02,0.14|
0.081,0.08,0.19,0.18,0.19,0.055,0.19,0.033|
0.098,0.061,0.066,0.028,0.024,0.26,0.28,0.18|
];
transition_y6=[
0.077,0.15,0.12,0.065,0.2,0.14,0.14,0.1|
0.12,0.074,0.1,0.18,0.17,0.17,0.17,0.012|
0.15,0.088,0.086,0.2,0.082,0.1,0.21,0.074|
0.29,0.068,0.28,0.27,0.056,0.008,0.0084,0.017|
0.31,0.087,0.21,0.27,0.045,0.0099,0.026,0.038|
0.074,0.18,0.17,0.15,0.14,0.094,0.14,0.046|
0.085,0.17,0.13,0.17,0.095,0.16,0.048,0.15|
0.27,0.11,0.059,0.25,0.01,0.039,0.058,0.2|
];
transition_y7=[
0.051,0.14,0.088,0.21,0.021,0.014,0.29,0.18|
0.11,0.17,0.19,0.029,0.12,0.12,0.11,0.15|
0.059,0.0095,0.15,0.2,0.031,0.15,0.27,0.13|
0.14,0.17,0.096,0.1,0.0034,0.2,0.032,0.25|
0.16,0.051,0.14,0.038,0.32,0.22,0.052,0.013|
0.032,0.063,0.089,0.27,0.036,0.23,0.16,0.12|
0.044,0.13,0.11,0.16,0.23,0.15,0.093,0.089|
0.068,0.15,0.18,0.15,0.075,0.061,0.18,0.14|
];
transition_y8=[
0.15,0.24,0.0052,0.15,0.11,0.12,0.018,0.21|
0.11,0.12,0.095,0.18,0.13,0.17,0.0048,0.19|
0.12,0.042,0.18,0.21,0.078,0.091,0.078,0.2|
0.044,0.27,0.13,0.063,0.066,0.16,0.02,0.25|
0.044,0.052,0.14,0.2,0.13,0.21,0.066,0.16|
0.12,0.15,0.13,0.1,0.2,0.048,0.19,0.058|
0.17,0.07,0.17,0.036,0.17,0.083,0.18,0.13|
0.13,0.029,0.017,0.28,0.0098,0.2,0.025,0.31|
];
